156179
0,27,86,43,65,58,26,9,92,11,91,7,96,54,28,29,4,51,64,30,12,19,55,15,63,89,16,20,76,45,85,21,61,24,44,99,98,67,49,25,101,73,13,46,60,3,102,34,74,62,31,6,83,52,48,93,69,17,14,78,90,59,95,77,2,104,100,37,103,94,66,40,10,84,47,72,35,53,70,36,38,32,1,71,81,50,18,41,80,68,5,39,87,97,105,8,33,82,56,22,79,88,75,57,23,42,0